db/data/271422403020134228627770283021951124067.z3.out
sat
-------------------
157.860063081
